\ This file has been generated by DOcplex
\ ENCODING=ISO-8859-1
\Problem name: random_problem.lp

Minimize
 obj: 7 x0 + 3 x1 + 4 x2 + 7 x3 - 3 x4 + 5 x6 + x7 - 7 x8 - 4 x9 + 5 x10 + x11
      + 6 x12 + 5 x13 + 5 x14 - 9 x15 + 8 x16 - 2 x17 - 3 x18 + 5 x19 + 6 x20
      + 9 x21 + x22 - 9 x23 - 5 x24 + 5 x26 + 4 x27 - 9 x28 - 2 x29 - 6 x31
      - x32 - 9 x33 + 4 x34 + 9 x35 - 4 x36 + 6 x37 - 8 x38 + x39 + 10 x40
      + 10 x41 + 6 x42 - 7 x44 + 5 x45 - 7 x46 - 3 x47 + 6 x48 + 2 x49 + [
      6 x0*x10 - 20 x0*x21 - 10 x0*x23 + 6 x0*x27 + 2 x0*x39 - 20 x0*x41
      - 12 x0*x42 - 6 x0*x43 - 8 x0*x45 - 8 x0*x48 - 2 x1*x9 + 2 x1*x13
      - 18 x1*x16 - 18 x1*x23 - 20 x1*x24 - 10 x1*x26 - 6 x1*x32 - 14 x1*x43
      + 14 x1*x46 + 2 x1*x47 - 10 x2*x15 + 2 x2*x17 + 8 x2*x19 + 2 x2*x22
      + 14 x2*x28 - 18 x2*x31 - 12 x2*x35 + 18 x2*x40 - 4 x2*x44 + 14 x2*x49
      + 16 x3*x19 - 4 x3*x20 - 18 x3*x21 + 6 x3*x22 - 16 x3*x24 - 18 x3*x27
      + 18 x3*x30 + 6 x3*x40 + 6 x3*x41 + 8 x3*x46 + 2 x4*x9 - 2 x4*x14
      + 20 x4*x21 + 12 x4*x22 + 8 x4*x29 + 4 x4*x33 - 14 x4*x37 - 6 x4*x44
      - 14 x4*x46 + 2 x4*x47 - 18 x5*x7 - 8 x5*x13 - 2 x5*x16 - 18 x5*x30
      - 4 x5*x31 - 16 x5*x32 + 2 x5*x40 + 20 x5*x41 + 4 x5*x45 + 14 x5*x49
      + 20 x6*x8 + 20 x6*x16 + 6 x6*x22 + 6 x6*x26 + 20 x6*x30 - 4 x6*x34
      + 10 x6*x36 + 12 x6*x43 - 16 x6*x45 + 2 x6*x47 - 18 x7*x19 - 10 x7*x23
      - 18 x7*x27 - 12 x7*x34 + 20 x7*x38 - 10 x7*x39 + 16 x7*x40 + 6 x7*x44
      + 16 x7*x46 - 20 x8*x10 + 10 x8*x14 + 16 x8*x15 - 18 x8*x17 - 14 x8*x26
      - 12 x8*x28 + 4 x8*x29 + 20 x8*x34 - 8 x8*x46 - 4 x9*x15 + 16 x9*x17
      - 14 x9*x19 + 6 x9*x21 + 6 x9*x23 - 12 x9*x27 + 16 x9*x36 - 14 x9*x45
      + 6 x10*x11 + 2 x10*x15 + 6 x10*x21 + 16 x10*x23 - 8 x10*x38 - 2 x10*x40
      - 20 x10*x44 - 16 x10*x48 + 2 x11*x15 + 14 x11*x16 - 16 x11*x17
      + 2 x11*x30 + 12 x11*x32 - 2 x11*x40 - 20 x11*x41 + 12 x11*x42
      + 12 x11*x46 - 20 x12*x14 + 14 x12*x19 + 6 x12*x24 - 16 x12*x25
      - 20 x12*x30 + 20 x12*x36 + 8 x12*x43 - 18 x12*x46 + 6 x12*x47 + 4 x12*x49
      - 12 x13*x17 - 4 x13*x18 - 10 x13*x20 - 14 x13*x28 + 16 x13*x34
      - 18 x13*x35 + 18 x13*x44 - 14 x13*x47 - 20 x14*x19 - 14 x14*x25
      + 12 x14*x31 + 16 x14*x38 - 20 x14*x42 + 4 x14*x48 - 6 x14*x49 - 8 x15*x20
      - 2 x15*x26 - 10 x15*x32 + 8 x15*x39 - 14 x15*x48 - 2 x16*x19 - 16 x16*x22
      - 10 x16*x26 + 2 x16*x29 + 8 x16*x35 - 12 x16*x37 - 20 x17*x18 - 4 x17*x37
      + 14 x17*x38 + 12 x17*x44 - 4 x17*x49 + 8 x18*x19 + 2 x18*x25 + 8 x18*x28
      + 18 x18*x32 - 20 x18*x35 + 2 x18*x38 + 12 x18*x42 + 6 x18*x49
      - 14 x19*x24 + 12 x19*x25 - 14 x20*x26 + 20 x20*x28 + 16 x20*x33
      - 20 x20*x38 - 18 x20*x39 + 8 x20*x41 - 10 x20*x45 + 14 x21*x27
      - 20 x21*x30 + 8 x21*x41 - 16 x21*x43 + 20 x21*x48 - 14 x22*x24
      - 8 x22*x27 - 18 x22*x31 + 6 x22*x33 + 18 x22*x47 + 16 x23*x25 + 4 x23*x36
      + 8 x23*x39 - 4 x23*x44 - 20 x23*x45 + 14 x24*x27 - 18 x24*x34
      - 18 x24*x36 + 14 x24*x43 - 20 x24*x47 - 18 x25*x28 - 6 x25*x37
      - 8 x25*x40 + 10 x25*x42 - 12 x25*x43 + 2 x26*x29 + 14 x26*x35 - 8 x26*x37
      + 8 x26*x38 + 10 x27*x29 + 16 x27*x42 - 16 x27*x47 + 10 x28*x29
      + 14 x28*x35 - 10 x28*x40 - 4 x28*x48 - 2 x29*x31 + 16 x29*x34 - 2 x29*x41
      - 20 x29*x49 + 2 x30*x33 - 12 x30*x34 + 2 x30*x48 - 8 x30*x49 + 12 x31*x32
      - 6 x31*x33 - 12 x31*x39 + 18 x31*x42 + 6 x31*x44 + 20 x32*x36
      + 16 x32*x38 + 20 x32*x41 + 6 x32*x47 + 4 x33*x34 - 14 x33*x36
      + 14 x33*x37 + 14 x33*x40 + 18 x33*x45 + 20 x34*x37 + 20 x34*x39
      - 2 x35*x37 - 20 x35*x38 + 8 x35*x42 - 8 x35*x49 - 14 x36*x41 - 20 x36*x43
      + 20 x36*x44 + 10 x37*x39 + 10 x37*x42 + 6 x38*x39 - 10 x39*x46
      + 16 x40*x43 + 8 x41*x45 + 10 x42*x46 - 20 x43*x46 - 8 x44*x45
      + 18 x45*x49 + 8 x47*x48 ]/2
Subject To
 c0: - x2 - 2 x4 - 2 x7 + 2 x11 - 2 x17 - 2 x28 + 2 x30 + 2 x31 + 2 x32 + 2 x44
      = 0
 c1: 2 x2 - x11 - 2 x12 + 2 x17 + x23 + 2 x29 - x32 + 2 x36 - 2 x44 - 2 x48 = 1
 c2: x5 + 2 x6 - x11 - 2 x15 + 2 x20 - x28 - 2 x39 + x40 + x41 + 2 x46 = -1
 c3: - 2 x11 + x15 - 2 x19 + x22 + 2 x25 + x32 - 2 x33 - x37 - x41 - 2 x48 = 1
 c4: - x1 - x7 - x14 - x24 + 2 x33 - x37 + 2 x38 + x39 + 2 x42 + 2 x43 = -1
 c5: 2 x2 + 2 x3 + 2 x6 + x9 - x16 - x17 - x35 - 2 x36 - 2 x41 + 2 x43 = 1
 c6: 2 x1 + x3 - x9 - 2 x10 - 2 x14 - x21 + 2 x22 - x28 + 2 x29 + 2 x45 = 0
 c7: 2 x0 - x5 + x14 + x23 - x24 - 2 x27 + x33 - 2 x42 - 2 x43 + 2 x44 = 0
 c8: 2 x5 - 2 x9 + x11 + x27 + 2 x28 + x31 + x35 + 2 x39 - x44 + 2 x46 = 0
 c9: - x10 + x15 - 2 x19 + 2 x26 - 2 x27 - x28 + x29 + x33 - 2 x40 + 2 x46 = 1

Bounds
 0 <= x0 <= 1
 0 <= x1 <= 1
 0 <= x2 <= 1
 0 <= x3 <= 1
 0 <= x4 <= 1
 0 <= x5 <= 1
 0 <= x6 <= 1
 0 <= x7 <= 1
 0 <= x8 <= 1
 0 <= x9 <= 1
 0 <= x10 <= 1
 0 <= x11 <= 1
 0 <= x12 <= 1
 0 <= x13 <= 1
 0 <= x14 <= 1
 0 <= x15 <= 1
 0 <= x16 <= 1
 0 <= x17 <= 1
 0 <= x18 <= 1
 0 <= x19 <= 1
 0 <= x20 <= 1
 0 <= x21 <= 1
 0 <= x22 <= 1
 0 <= x23 <= 1
 0 <= x24 <= 1
 0 <= x25 <= 1
 0 <= x26 <= 1
 0 <= x27 <= 1
 0 <= x28 <= 1
 0 <= x29 <= 1
 0 <= x30 <= 1
 0 <= x31 <= 1
 0 <= x32 <= 1
 0 <= x33 <= 1
 0 <= x34 <= 1
 0 <= x35 <= 1
 0 <= x36 <= 1
 0 <= x37 <= 1
 0 <= x38 <= 1
 0 <= x39 <= 1
 0 <= x40 <= 1
 0 <= x41 <= 1
 0 <= x42 <= 1
 0 <= x43 <= 1
 0 <= x44 <= 1
 0 <= x45 <= 1
 0 <= x46 <= 1
 0 <= x47 <= 1
 0 <= x48 <= 1
 0 <= x49 <= 1

Binaries
 x0 x1 x2 x3 x4 x5 x6 x7 x8 x9 x10 x11 x12 x13 x14 x15 x16 x17 x18 x19 x20 x21
 x22 x23 x24 x25 x26 x27 x28 x29 x30 x31 x32 x33 x34 x35 x36 x37 x38 x39 x40 x41
 x42 x43 x44 x45 x46 x47 x48 x49
End
